53 40 26 
27 69 51 9 78 34 35 77 
2 57 87 97 13 
62 88 7 18 
21 73 75 56 4 54 
12 29 68 24 80 
63 11 64 49 46 48 
72 39 23 67 55 25 
33 65 71 66 20 1 
95 92 98 85 99 96 
52 31 30 90 32 70 
59 14 44 38 43 37 
5 61 16 86 91 100 93 
47 36 19 10 
6 94 
42 15 41 22 74 58 
83 45 82 8 84 17 60 89 
28 76 81 79 3 50 
